c Generated map
c Size: 10 * 10, weights in range: 1 to 10, walls: True, with ratio 0.1
c dim 1 of 6
c
p sp 100 144
c graph contains 100 nodes and 144 arcs
c
a 1 2 6
a 2 1 6
a 2 12 2
a 12 2 2
a 2 3 9
a 3 2 9
a 3 13 8
a 13 3 8
a 3 4 7
a 4 3 7
a 4 14 1
a 14 4 1
a 4 5 6
a 5 4 6
a 5 6 6
a 6 5 6
a 6 16 10
a 16 6 10
a 6 7 4
a 7 6 4
a 7 17 2
a 17 7 2
a 7 8 3
a 8 7 3
a 8 18 8
a 18 8 8
a 8 9 7
a 9 8 7
a 9 19 1
a 19 9 1
a 9 10 6
a 10 9 6
a 10 20 5
a 20 10 5
a 12 22 6
a 22 12 6
a 12 13 3
a 13 12 3
a 13 23 5
a 23 13 5
a 13 14 10
a 14 13 10
a 14 24 3
a 24 14 3
a 16 26 10
a 26 16 10
a 16 17 3
a 17 16 3
a 17 27 10
a 27 17 10
a 17 18 3
a 18 17 3
a 18 28 4
a 28 18 4
a 18 19 1
a 19 18 1
a 19 29 7
a 29 19 7
a 19 20 4
a 20 19 4
a 20 30 9
a 30 20 9
a 21 31 5
a 31 21 5
a 21 22 5
a 22 21 5
a 22 32 1
a 32 22 1
a 22 23 1
a 23 22 1
a 23 33 6
a 33 23 6
a 23 24 7
a 24 23 7
a 24 34 10
a 34 24 10
a 24 25 8
a 25 24 8
a 25 35 4
a 35 25 4
a 25 26 1
a 26 25 1
a 26 36 8
a 36 26 8
a 26 27 1
a 27 26 1
a 27 37 10
a 37 27 10
a 27 28 4
a 28 27 4
a 28 38 9
a 38 28 9
a 28 29 9
a 29 28 9
a 29 39 5
a 39 29 5
a 29 30 1
a 30 29 1
a 30 40 3
a 40 30 3
a 31 41 4
a 41 31 4
a 31 32 6
a 32 31 6
a 32 42 6
a 42 32 6
a 32 33 7
a 33 32 7
a 33 34 5
a 34 33 5
a 34 44 1
a 44 34 1
a 34 35 5
a 35 34 5
a 35 45 10
a 45 35 10
a 35 36 8
a 36 35 8
a 36 37 2
a 37 36 2
a 37 47 7
a 47 37 7
a 37 38 9
a 38 37 9
a 38 48 5
a 48 38 5
a 38 39 6
a 39 38 6
a 39 49 10
a 49 39 10
a 39 40 8
a 40 39 8
a 41 51 1
a 51 41 1
a 41 42 1
a 42 41 1
a 42 52 6
a 52 42 6
a 44 54 2
a 54 44 2
a 44 45 2
a 45 44 2
a 45 55 2
a 55 45 2
a 47 57 4
a 57 47 4
a 47 48 1
a 48 47 1
a 48 58 3
a 58 48 3
a 48 49 9
a 49 48 9
a 49 59 3
a 59 49 3
a 51 61 8
a 61 51 8
a 51 52 4
a 52 51 4
a 52 62 4
a 62 52 4
a 52 53 2
a 53 52 2
a 53 63 1
a 63 53 1
a 53 54 1
a 54 53 1
a 54 64 4
a 64 54 4
a 54 55 1
a 55 54 1
a 55 56 5
a 56 55 5
a 56 66 3
a 66 56 3
a 56 57 8
a 57 56 8
a 57 67 6
a 67 57 6
a 57 58 9
a 58 57 9
a 58 59 7
a 59 58 7
a 59 60 2
a 60 59 2
a 60 70 7
a 70 60 7
a 61 71 8
a 71 61 8
a 61 62 10
a 62 61 10
a 62 72 4
a 72 62 4
a 62 63 2
a 63 62 2
a 63 73 5
a 73 63 5
a 63 64 1
a 64 63 1
a 64 74 4
a 74 64 4
a 66 76 5
a 76 66 5
a 66 67 4
a 67 66 4
a 67 77 6
a 77 67 6
a 70 80 9
a 80 70 9
a 71 81 8
a 81 71 8
a 71 72 1
a 72 71 1
a 72 73 7
a 73 72 7
a 73 83 6
a 83 73 6
a 73 74 10
a 74 73 10
a 74 84 1
a 84 74 1
a 74 75 10
a 75 74 10
a 75 85 4
a 85 75 4
a 75 76 5
a 76 75 5
a 76 86 3
a 86 76 3
a 76 77 2
a 77 76 2
a 77 87 5
a 87 77 5
a 77 78 9
a 78 77 9
a 78 88 9
a 88 78 9
a 78 79 9
a 79 78 9
a 79 89 1
a 89 79 1
a 79 80 2
a 80 79 2
a 81 91 3
a 91 81 3
a 83 93 9
a 93 83 9
a 83 84 5
a 84 83 5
a 84 94 1
a 94 84 1
a 84 85 3
a 85 84 3
a 85 95 6
a 95 85 6
a 85 86 8
a 86 85 8
a 86 96 6
a 96 86 6
a 86 87 7
a 87 86 7
a 87 97 3
a 97 87 3
a 87 88 8
a 88 87 8
a 88 98 8
a 98 88 8
a 88 89 10
a 89 88 10
a 89 99 3
a 99 89 3
a 91 92 8
a 92 91 8
a 92 93 6
a 93 92 6
a 93 94 2
a 94 93 2
a 94 95 4
a 95 94 4
a 95 96 8
a 96 95 8
a 96 97 5
a 97 96 5
a 97 98 7
a 98 97 7
a 98 99 2
a 99 98 2
a 99 100 9
a 100 99 9
